85 41 21 8 30 77 94 71 60 68 0 10 18 44 25 86 33 19 31 61 24 67 81 7 93 66 15 64 92 4 11 76 75 53 70 36 99 28 89 45 40 82 69 9 48 97 12 50 79 20 47 1 57 49 37 96 39 73 46 3 34 26 83 80 52 29 32 84 54 98 91 2 6 38 78 65 87 14 16 5 35 51 17 88 43 22 56 74 27 72 58 95 63 23 62 13 55 90 42 59 

